(set-logic QF_S)
(set-option :strings-exp true)
(set-option :produce-models true)
(declare-fun sigmaStar_0 () String)
(declare-fun literal_5 () String)
(assert (= literal_5 "\x3c\x68\x34\x3e\x3c\x63\x65\x6e\x74\x65\x72\x3e\x6e\x6f\x72\x65\x63\x65\x6e\x74\x61\x63\x74\x69\x76\x69\x74\x79\x3c\x2f\x63\x65\x6e\x74\x65\x72\x3e\x3c\x2f\x68\x32\x3e"))
(assert (str.in.re literal_5 (re.++ (re.* re.allchar) (re.++ (str.to.re "\x5c\x3c\x53\x43\x52\x49\x50\x54") (re.* re.allchar)))))
(check-sat)
(get-model)
